(set-logic ALL)
(declare-fun var0 () String)
(assert (str.in_re var0 (re.++ (re.union (re.+ (str.to_re "0")) (re.+ (str.to_re "11"))) (re.++ (re.+ (re.* (str.to_re "22"))) (re.++ (re.+ (re.union (str.to_re "3") (str.to_re "4"))) (re.++ (re.* (re.* (str.to_re "5"))) (re.++ (re.union (re.+ (str.to_re "6")) (re.+ (str.to_re "777"))) (re.++ (re.union (re.* (str.to_re "888")) (re.* (str.to_re "999"))) (re.++ (re.union (re.* (str.to_re "aaa")) (re.* (str.to_re "bb"))) (re.++ (re.* (re.+ (str.to_re "c"))) (re.++ (re.union (re.* (str.to_re "ddd")) (re.* (str.to_re "ee"))) (re.++ (re.union (re.+ (str.to_re "ff")) (re.+ (str.to_re "g"))) (re.++ (re.union (re.* (str.to_re "hh")) (re.* (str.to_re "i"))) (re.++ (re.union (re.+ (str.to_re "j")) (re.+ (str.to_re "kk"))) (re.++ (re.+ (re.union (str.to_re "lll") (str.to_re "mmm"))) (re.++ (re.* (re.+ (str.to_re "nn"))) (re.++ (re.union (re.* (str.to_re "o")) (re.* (str.to_re "p"))) (re.++ (re.+ (re.* (str.to_re "qqq"))) (re.++ (re.+ (re.* (str.to_re "r"))) (re.++ (re.union (re.* (str.to_re "ss")) (re.* (str.to_re "tt"))) (re.++ (re.union (re.+ (str.to_re "uuu")) (re.+ (str.to_re "vvv"))) (re.++ (re.* (re.* (str.to_re "ww"))) (re.++ (re.* (re.+ (str.to_re "xx"))) (re.++ (re.union (re.* (str.to_re "y")) (re.* (str.to_re "zz"))) (re.++ (re.+ (re.+ (str.to_re "AA"))) (re.++ (re.+ (re.union (str.to_re "BB") (str.to_re "C"))) (re.++ (re.* (re.+ (str.to_re "DD"))) (re.++ (re.+ (re.* (str.to_re "EE"))) (re.++ (re.* (re.* (str.to_re "FFF"))) (re.++ (re.* (re.* (str.to_re "GG"))) (re.++ (re.* (re.+ (str.to_re "HHH"))) (re.++ (re.+ (re.* (str.to_re "III"))) (re.++ (re.union (re.+ (str.to_re "J")) (re.+ (str.to_re "KKK"))) (re.++ (re.* (re.+ (str.to_re "LLL"))) (re.++ (re.+ (re.union (str.to_re "MMM") (str.to_re "N"))) (re.++ (re.union (re.* (str.to_re "O")) (re.* (str.to_re "PPP"))) (re.++ (re.* (re.* (str.to_re "QQ"))) (re.++ (re.union (re.union (str.to_re "RR") (str.to_re "SS")) (re.union (str.to_re "T") (str.to_re "U"))) (re.++ (re.+ (re.* (str.to_re "VVV"))) (re.++ (re.union (re.union (str.to_re "WWW") (str.to_re "X")) (re.union (str.to_re "Y") (str.to_re "ZZ"))) (re.++ (re.+ (re.* (str.to_re "!"))) (re.++ (re.* (re.+ (str.to_re """"))) (re.++ (re.* (re.union (str.to_re "#") (str.to_re "$$"))) (re.++ (re.union (re.union (str.to_re "%%%") (str.to_re "&")) (re.union (str.to_re "'") (str.to_re "("))) (re.++ (re.+ (re.union (str.to_re ")))") (str.to_re "*"))) (re.++ (re.+ (re.* (str.to_re "+"))) (re.++ (re.+ (re.union (str.to_re ",,") (str.to_re "-"))) (re.++ (re.* (re.union (str.to_re ".") (str.to_re "//"))) (re.++ (re.union (re.* (str.to_re "::")) (re.* (str.to_re ";"))) (re.++ (re.union (re.+ (str.to_re "<<")) (re.+ (str.to_re "=="))) (re.++ (re.+ (re.union (str.to_re ">>") (str.to_re "??"))) (re.++ (re.* (re.+ (str.to_re "@"))) (re.++ (re.* (re.union (str.to_re "[") (str.to_re "\\\\\\"))) (re.++ (re.union (re.* (str.to_re "]]")) (re.* (str.to_re "^^"))) (re.++ (re.* (re.+ (str.to_re "_"))) (re.++ (re.* (re.union (str.to_re "```") (str.to_re "{{"))) (re.++ (re.* (re.+ (str.to_re "|||"))) (re.++ (re.union (re.+ (str.to_re "}}")) (re.+ (str.to_re "~"))) (re.++ (re.+ (re.union (str.to_re "000") (str.to_re "1"))) (re.++ (re.union (re.+ (str.to_re "222")) (re.+ (str.to_re "3"))) (re.++ (re.union (re.union (str.to_re "444") (str.to_re "55")) (re.union (str.to_re "666") (str.to_re "777"))) (re.++ (re.union (re.* (str.to_re "8")) (re.* (str.to_re "999"))) (re.++ (re.* (re.union (str.to_re "a") (str.to_re "bbb"))) (re.++ (re.union (re.* (str.to_re "ccc")) (re.* (str.to_re "ddd"))) (re.++ (re.union (re.+ (str.to_re "eee")) (re.+ (str.to_re "f"))) (re.++ (re.+ (re.union (str.to_re "gg") (str.to_re "hhh"))) (re.++ (re.* (re.+ (str.to_re "ii"))) (re.++ (re.* (re.union (str.to_re "jjj") (str.to_re "kkk"))) (re.++ (re.union (re.* (str.to_re "lll")) (re.* (str.to_re "mmm"))) (re.++ (re.* (re.* (str.to_re "nnn"))) (re.++ (re.* (re.union (str.to_re "ooo") (str.to_re "pp"))) (re.++ (re.union (re.* (str.to_re "q")) (re.* (str.to_re "r"))) (re.++ (re.* (re.* (str.to_re "ss"))) (re.++ (re.* (re.union (str.to_re "tt") (str.to_re "uu"))) (re.++ (re.* (re.+ (str.to_re "v"))) (re.++ (re.union (re.union (str.to_re "ww") (str.to_re "xxx")) (re.union (str.to_re "yyy") (str.to_re "zzz"))) (re.++ (re.union (re.+ (str.to_re "AAA")) (re.+ (str.to_re "BB"))) (re.++ (re.union (re.union (str.to_re "CCC") (str.to_re "D")) (re.union (str.to_re "EEE") (str.to_re "FFF"))) (re.++ (re.* (re.+ (str.to_re "GGG"))) (re.++ (re.+ (re.+ (str.to_re "HHH"))) (re.++ (re.+ (re.* (str.to_re "II"))) (re.++ (re.+ (re.union (str.to_re "JJJ") (str.to_re "KKK"))) (re.++ (re.union (re.+ (str.to_re "LLL")) (re.+ (str.to_re "M"))) (re.++ (re.* (re.+ (str.to_re "N"))) (re.++ (re.union (re.* (str.to_re "OOO")) (re.* (str.to_re "PP"))) (re.++ (re.+ (re.* (str.to_re "Q"))) (re.++ (re.+ (re.+ (str.to_re "RRR"))) (re.++ (re.+ (re.union (str.to_re "SS") (str.to_re "T"))) (re.++ (re.union (re.union (str.to_re "UUU") (str.to_re "V")) (re.union (str.to_re "WWW") (str.to_re "XX"))) (re.++ (re.union (re.* (str.to_re "YY")) (re.* (str.to_re "ZZ"))) (re.++ (re.union (re.union (str.to_re "!!!") (str.to_re """""")) (re.union (str.to_re "##") (str.to_re "$$"))) (re.++ (re.* (re.union (str.to_re "%") (str.to_re "&"))) (re.++ (re.+ (re.* (str.to_re "''"))) (re.++ (re.+ (re.+ (str.to_re "((("))) (re.++ (re.union (re.union (str.to_re ")))") (str.to_re "*")) (re.union (str.to_re "+") (str.to_re ","))) (re.++ (re.+ (re.* (str.to_re "---"))) (re.++ (re.union (re.union (str.to_re "..") (str.to_re "/")) (re.union (str.to_re ":::") (str.to_re ";"))) (re.++ (re.union (re.+ (str.to_re "<")) (re.+ (str.to_re "==="))) (re.++ (re.union (re.+ (str.to_re ">>")) (re.+ (str.to_re "?"))) (re.++ (re.* (re.* (str.to_re "@"))) (re.++ (re.union (re.+ (str.to_re "[")) (re.+ (str.to_re "\\\\"))) (re.++ (re.* (re.union (str.to_re "]") (str.to_re "^^"))) (re.++ (re.+ (re.* (str.to_re "__"))) (re.++ (re.union (re.union (str.to_re "``") (str.to_re "{")) (re.union (str.to_re "|||") (str.to_re "}}}"))) (re.++ (re.union (re.+ (str.to_re "~")) (re.+ (str.to_re "00"))) (re.++ (re.union (re.+ (str.to_re "111")) (re.+ (str.to_re "22"))) (re.++ (re.* (re.* (str.to_re "333"))) (re.++ (re.* (re.+ (str.to_re "4"))) (re.++ (re.union (re.union (str.to_re "5") (str.to_re "666")) (re.union (str.to_re "777") (str.to_re "888"))) (re.++ (re.+ (re.+ (str.to_re "99"))) (re.++ (re.union (re.union (str.to_re "aa") (str.to_re "bb")) (re.union (str.to_re "cc") (str.to_re "ddd"))) (re.++ (re.* (re.+ (str.to_re "e"))) (re.++ (re.* (re.union (str.to_re "ff") (str.to_re "ggg"))) (re.++ (re.+ (re.+ (str.to_re "hh"))) (re.++ (re.* (re.* (str.to_re "ii"))) (re.++ (re.+ (re.union (str.to_re "jj") (str.to_re "k"))) (re.++ (re.+ (re.union (str.to_re "ll") (str.to_re "mmm"))) (re.++ (re.union (re.* (str.to_re "n")) (re.* (str.to_re "o"))) (re.++ (re.union (re.union (str.to_re "ppp") (str.to_re "q")) (re.union (str.to_re "r") (str.to_re "sss"))) (re.++ (re.* (re.union (str.to_re "t") (str.to_re "uuu"))) (re.++ (re.* (re.union (str.to_re "vv") (str.to_re "ww"))) (re.++ (re.+ (re.* (str.to_re "xx"))) (re.++ (re.+ (re.+ (str.to_re "y"))) (re.++ (re.union (re.* (str.to_re "z")) (re.* (str.to_re "AAA"))) (re.++ (re.* (re.* (str.to_re "B"))) (re.++ (re.+ (re.* (str.to_re "CCC"))) (re.++ (re.+ (re.union (str.to_re "D") (str.to_re "EEE"))) (re.++ (re.union (re.union (str.to_re "FF") (str.to_re "GG")) (re.union (str.to_re "HHH") (str.to_re "II"))) (re.++ (re.* (re.union (str.to_re "JJJ") (str.to_re "K"))) (re.++ (re.+ (re.union (str.to_re "L") (str.to_re "MM"))) (re.++ (re.* (re.union (str.to_re "N") (str.to_re "OOO"))) (re.++ (re.+ (re.* (str.to_re "PPP"))) (re.++ (re.* (re.* (str.to_re "Q"))) (re.++ (re.union (re.union (str.to_re "RRR") (str.to_re "SSS")) (re.union (str.to_re "T") (str.to_re "U"))) (re.++ (re.* (re.* (str.to_re "VVV"))) (re.++ (re.* (re.* (str.to_re "WW"))) (re.++ (re.+ (re.+ (str.to_re "XX"))) (re.++ (re.+ (re.union (str.to_re "YY") (str.to_re "Z"))) (re.++ (re.* (re.* (str.to_re "!"))) (re.++ (re.+ (re.+ (str.to_re """"))) (re.++ (re.* (re.+ (str.to_re "##"))) (re.++ (re.+ (re.union (str.to_re "$$$") (str.to_re "%%"))) (re.++ (re.* (re.+ (str.to_re "&&"))) (re.++ (re.+ (re.union (str.to_re "'") (str.to_re "(("))) (re.++ (re.+ (re.* (str.to_re ")))"))) (re.++ (re.+ (re.+ (str.to_re "***"))) (re.++ (re.+ (re.* (str.to_re "++"))) (re.++ (re.* (re.union (str.to_re ",") (str.to_re "---"))) (re.++ (re.union (re.union (str.to_re "..") (str.to_re "/")) (re.union (str.to_re "::") (str.to_re ";;"))) (re.++ (re.+ (re.+ (str.to_re "<<<"))) (re.++ (re.union (re.union (str.to_re "=") (str.to_re ">")) (re.union (str.to_re "??") (str.to_re "@"))) (re.++ (re.union (re.union (str.to_re "[") (str.to_re "\\\\\\")) (re.union (str.to_re "]]]") (str.to_re "^^"))) (re.++ (re.* (re.* (str.to_re "_"))) (re.++ (re.union (re.* (str.to_re "```")) (re.* (str.to_re "{{{"))) (re.++ (re.* (re.+ (str.to_re "|||"))) (re.++ (re.* (re.+ (str.to_re "}}}"))) (re.++ (re.+ (re.union (str.to_re "~~~") (str.to_re "00"))) (re.++ (re.* (re.union (str.to_re "1") (str.to_re "22"))) (re.++ (re.+ (re.+ (str.to_re "3"))) (re.++ (re.* (re.* (str.to_re "44"))) (re.++ (re.union (re.+ (str.to_re "555")) (re.+ (str.to_re "6"))) (re.++ (re.+ (re.union (str.to_re "77") (str.to_re "8"))) (re.++ (re.* (re.union (str.to_re "99") (str.to_re "aa"))) (re.++ (re.* (re.+ (str.to_re "bbb"))) (re.++ (re.* (re.* (str.to_re "cc"))) (re.++ (re.union (re.+ (str.to_re "ddd")) (re.+ (str.to_re "eee"))) (re.++ (re.+ (re.union (str.to_re "fff") (str.to_re "gg"))) (re.++ (re.* (re.+ (str.to_re "hh"))) (re.++ (re.union (re.union (str.to_re "ii") (str.to_re "jj")) (re.union (str.to_re "kkk") (str.to_re "lll"))) (re.++ (re.* (re.* (str.to_re "m"))) (re.++ (re.* (re.union (str.to_re "nn") (str.to_re "oo"))) (re.++ (re.+ (re.+ (str.to_re "p"))) (re.++ (re.+ (re.* (str.to_re "qq"))) (re.++ (re.union (re.+ (str.to_re "rr")) (re.+ (str.to_re "ss"))) (re.++ (re.* (re.union (str.to_re "tt") (str.to_re "uu"))) (re.++ (re.union (re.union (str.to_re "v") (str.to_re "ww")) (re.union (str.to_re "xx") (str.to_re "y"))) (re.++ (re.* (re.* (str.to_re "z"))) (re.++ (re.union (re.union (str.to_re "AA") (str.to_re "BB")) (re.union (str.to_re "CC") (str.to_re "DDD"))) (re.++ (re.+ (re.* (str.to_re "EE"))) (re.++ (re.union (re.* (str.to_re "FFF")) (re.* (str.to_re "G"))) (re.++ (re.* (re.* (str.to_re "HH"))) (re.++ (re.union (re.+ (str.to_re "II")) (re.+ (str.to_re "JJ"))) (re.++ (re.+ (re.+ (str.to_re "K"))) (re.++ (re.union (re.union (str.to_re "LLL") (str.to_re "MMM")) (re.union (str.to_re "NN") (str.to_re "OOO"))) (re.* (re.+ (str.to_re "PPP")))))))))))))))))))))))))))))))))))))))))))))))))))))))))))))))))))))))))))))))))))))))))))))))))))))))))))))))))))))))))))))))))))))))))))))))))))))))))))))))))))))))))))))))))))))))))))
(check-sat)